Máquinas: 30
Tarefas: 150

Datas de Entrega:
7415
6316
6108
6948
7035
6889
6227
7256
6194
6704
6757
7256
6635
6131
6556
7146
6611
6358
6091
7086
6430
6126
6904
7625
7685
7166
6143
7486
6452
7137
6492
6501
6847
6006
7316
6490
6951
6769
6520
7287
6401
7637
7261
7292
6789
6746
6670
6545
6829
7379
7514
7216
7209
6988
6479
7158
7238
6057
6838
7208
6130
7028
6799
6917
6899
6843
6409
7612
7680
6146
6649
6136
6573
7510
6633
7497
7255
6765
7452
6884
7030
6512
6455
6483
7252
6374
6581
6011
7098
6747
7623
6621
7048
6233
7040
7006
7471
6431
7561
6220
6844
6083
7137
6708
6553
6323
6655
7017
6166
6314
7445
7534
7183
7495
6955
6052
6538
7009
6858
6903
6998
7442
6528
6689
7105
6824
7636
6638
7442
6615
6320
6806
7043
7571
7587
6291
6919
6462
6996
6253
6239
6017
6164
6722
7260
6876
6221
7017
7130
7125

Tempos de Processamento:
58 38 82 57 60 61 96 56 39 45 3 78 15 36 81 10 10 97 73 15 84 59 6 6 95 68 4 5 89 45 46 64 24 47 23 25 62 52 7 56 94 9 8 84 68 72 33 98 67 90 80 62 52 62 92 14 30 38 18 28 79 33 27 37 7 33 99 9 99 30 55 62 50 97 92 22 14 3 9 35 51 15 35 33 67 69 58 48 15 48 54 72 68 77 46 56 30 14 52 69 22 86 84 66 18 11 61 45 20 92 49 73 1 60 60 98 65 84 36 2 17 28 7 72 72 96 99 12 13 38 38 99 36 99 14 64 47 5 61 37 13 21 6 78 37 44 40 83 60 3 
3 92 50 94 79 98 71 9 27 25 79 93 13 54 95 6 5 35 7 19 75 9 25 24 81 97 63 10 39 93 71 36 29 7 33 21 18 12 58 81 49 91 91 44 92 25 62 76 72 18 93 84 64 82 18 50 85 11 95 63 62 25 43 13 72 3 81 78 20 91 17 67 60 84 88 5 95 26 94 81 39 61 22 19 25 33 33 83 85 5 2 91 52 2 17 62 65 37 60 34 1 74 31 53 76 30 24 95 33 74 54 41 94 64 96 13 96 17 9 6 73 6 57 10 97 57 23 76 29 62 100 66 79 24 98 95 87 33 43 38 45 79 63 40 70 36 36 64 80 31 
10 83 45 43 34 25 71 32 3 88 18 25 98 74 29 12 9 16 40 66 95 40 26 69 1 84 93 85 5 64 35 17 58 88 8 75 47 4 36 8 81 65 80 49 67 93 85 54 81 58 96 23 45 18 53 10 50 36 67 23 19 100 14 86 98 85 56 46 42 15 73 85 28 50 72 75 95 40 68 69 95 15 42 21 92 62 12 19 29 25 94 12 58 75 38 24 55 88 8 68 97 87 50 20 93 4 91 99 62 68 79 21 56 24 100 100 72 1 96 21 67 20 39 77 43 39 46 96 39 29 34 94 10 75 100 89 47 33 61 5 64 13 40 51 48 41 62 56 50 72 
50 67 88 22 25 61 71 26 63 53 81 28 56 7 7 53 97 90 57 63 40 6 93 70 11 36 77 34 69 1 22 89 56 97 80 97 82 39 3 20 93 43 70 66 13 31 22 19 62 57 63 7 23 47 14 14 71 56 81 62 71 80 22 19 42 90 54 82 30 51 13 0 0 0 0 0 0 0 0 0 0 0 0 0 0 0 0 0 0 0 0 0 0 0 0 0 0 0 0 0 0 0 0 0 0 0 0 0 0 0 0 0 0 0 0 0 0 0 0 0 0 0 0 0 0 0 0 0 0 0 0 0 0 0 0 0 0 0 0 0 0 0 0 0 0 0 0 0 0 0 
0 0 0 0 0 0 0 0 0 0 0 0 0 0 0 0 0 0 0 0 0 0 0 0 0 0 0 0 0 0 0 0 0 0 0 0 0 0 0 0 0 0 0 0 0 0 0 0 0 0 0 0 0 0 0 0 0 0 0 0 0 0 0 0 0 0 0 0 0 0 0 0 0 0 0 0 0 0 0 0 0 0 0 0 0 0 0 0 0 0 0 0 0 0 0 0 0 0 0 0 0 0 0 0 0 0 0 0 0 0 0 0 0 0 0 0 0 0 0 0 0 0 0 0 0 0 0 0 0 0 0 0 0 0 0 0 0 0 0 0 0 0 0 0 0 0 0 0 0 0 
0 0 0 0 0 0 0 0 0 0 0 0 0 0 0 0 0 0 0 0 0 0 0 0 0 0 0 0 0 0 0 0 0 0 0 0 0 0 0 0 0 0 0 0 0 0 0 0 0 0 0 0 0 0 0 0 0 0 0 0 0 0 0 0 0 0 0 0 0 0 0 0 0 0 0 0 0 0 0 0 0 0 0 0 0 0 0 0 0 0 0 0 0 0 0 0 0 0 0 0 0 0 0 0 0 0 0 0 0 0 0 0 0 0 0 0 0 0 0 0 0 0 0 0 0 0 0 0 0 0 0 0 0 0 0 0 0 0 0 0 0 0 0 0 0 0 0 0 0 0 
0 0 0 0 0 0 0 0 0 0 0 0 0 0 0 0 0 0 0 0 0 0 0 0 0 0 0 0 0 0 0 0 0 0 0 0 0 0 0 0 0 0 0 0 0 0 0 0 0 0 0 0 0 0 0 0 0 0 0 0 0 0 0 0 0 0 0 0 0 0 0 0 0 0 0 0 0 0 0 0 0 0 0 0 0 0 0 0 0 0 0 0 0 0 0 0 0 0 0 0 0 0 0 0 0 0 0 0 0 0 0 0 0 0 0 0 0 0 0 0 0 0 0 0 0 0 0 0 0 0 0 0 0 0 0 0 0 0 0 0 0 0 0 0 0 0 0 0 0 0 
0 0 0 0 0 0 0 0 0 0 0 0 0 0 0 0 0 0 0 0 0 0 0 0 0 0 0 0 0 0 0 0 0 0 0 0 0 0 0 0 0 0 0 0 0 0 0 0 0 0 0 0 0 0 0 0 0 0 0 0 0 0 0 0 0 0 0 0 0 0 0 0 0 0 0 0 0 0 0 0 0 0 0 0 0 0 0 0 0 0 0 0 0 0 0 0 0 0 0 0 0 0 0 0 0 0 0 0 0 0 0 0 0 0 0 0 0 0 0 0 0 0 0 0 0 0 0 0 0 0 0 0 0 0 0 0 0 0 0 0 0 0 0 0 0 0 0 0 0 0 
0 0 0 0 0 0 0 0 0 0 0 0 0 0 0 0 0 0 0 0 0 0 0 0 0 0 0 0 0 0 0 0 0 0 0 0 0 0 0 0 0 0 0 0 0 0 0 0 0 0 0 0 0 0 0 0 0 0 0 0 0 0 0 0 0 0 0 0 0 0 0 0 0 0 0 0 0 0 0 0 0 0 0 0 0 0 0 0 0 0 0 0 0 0 0 0 0 0 0 0 0 0 0 0 0 0 0 0 0 0 0 0 0 0 0 0 0 0 0 0 0 0 0 0 0 0 0 0 0 0 0 0 0 0 0 0 0 0 0 0 0 0 0 0 0 0 0 0 0 0 
0 0 0 0 0 0 0 0 0 0 0 0 0 0 0 0 0 0 0 0 0 0 0 0 0 0 0 0 0 0 0 0 0 0 0 0 0 0 0 0 0 0 0 0 0 0 0 0 0 0 0 0 0 0 0 0 0 0 0 0 0 0 0 0 0 0 0 0 0 0 0 0 0 0 0 0 0 0 0 0 0 0 0 0 0 0 0 0 0 0 0 0 0 0 0 0 0 0 0 0 0 0 0 0 0 0 0 0 0 0 0 0 0 0 0 0 0 0 0 0 0 0 0 0 0 0 0 0 0 0 0 0 0 0 0 0 0 0 0 0 0 0 0 0 0 0 0 0 0 0 
0 0 0 0 0 0 0 0 0 0 0 0 0 0 0 0 0 0 0 0 0 0 0 0 0 0 0 0 0 0 0 0 0 0 0 0 0 0 0 0 0 0 0 0 0 0 0 0 0 0 0 0 0 0 0 0 0 0 0 0 0 0 0 0 0 0 0 0 0 0 0 0 0 0 0 0 0 0 0 0 0 0 0 0 0 0 0 0 0 0 0 0 0 0 0 0 0 0 0 0 0 0 0 0 0 0 0 0 0 0 0 0 0 0 0 0 0 0 0 0 0 0 0 0 0 0 0 0 0 0 0 0 0 0 0 0 0 0 0 0 0 0 0 0 0 0 0 0 0 0 
0 0 0 0 0 0 0 0 0 0 0 0 0 0 0 0 0 0 0 0 0 0 0 0 0 0 0 0 0 0 0 0 0 0 0 0 0 0 0 0 0 0 0 0 0 0 0 0 0 0 0 0 0 0 0 0 0 0 0 0 0 0 0 0 0 0 0 0 0 0 0 0 0 0 0 0 0 0 0 0 0 0 0 0 0 0 0 0 0 0 0 0 0 0 0 0 0 0 0 0 0 0 0 0 0 0 0 0 0 0 0 0 0 0 0 0 0 0 0 0 0 0 0 0 0 0 0 0 0 0 0 0 0 0 0 0 0 0 0 0 0 0 0 0 0 0 0 0 0 0 
0 0 0 0 0 0 0 0 0 0 0 0 0 0 0 0 0 0 0 0 0 0 0 0 0 0 0 0 0 0 0 0 0 0 0 0 0 0 0 0 0 0 0 0 0 0 0 0 0 0 0 0 0 0 0 0 0 0 0 0 0 0 0 0 0 0 0 0 0 0 0 0 0 0 0 0 0 0 0 0 0 0 0 0 0 0 0 0 0 0 0 0 0 0 0 0 0 0 0 0 0 0 0 0 0 0 0 0 0 0 0 0 0 0 0 0 0 0 0 0 0 0 0 0 0 0 0 0 0 0 0 0 0 0 0 0 0 0 0 0 0 0 0 0 0 0 0 0 0 0 
0 0 0 0 0 0 0 0 0 0 0 0 0 0 0 0 0 0 0 0 0 0 0 0 0 0 0 0 0 0 0 0 0 0 0 0 0 0 0 0 0 0 0 0 0 0 0 0 0 0 0 0 0 0 0 0 0 0 0 0 0 0 0 0 0 0 0 0 0 0 0 0 0 0 0 0 0 0 0 0 0 0 0 0 0 0 0 0 0 0 0 0 0 0 0 0 0 0 0 0 0 0 0 0 0 0 0 0 0 0 0 0 0 0 0 0 0 0 0 0 0 0 0 0 0 0 0 0 0 0 0 0 0 0 0 0 0 0 0 0 0 0 0 0 0 0 0 0 0 0 
0 0 0 0 0 0 0 0 0 0 0 0 0 0 0 0 0 0 0 0 0 0 0 0 0 0 0 0 0 0 0 0 0 0 0 0 0 0 0 0 0 0 0 0 0 0 0 0 0 0 0 0 0 0 0 0 0 0 0 0 0 0 0 0 0 0 0 0 0 0 0 0 0 0 0 0 0 0 0 0 0 0 0 0 0 0 0 0 0 0 0 0 0 0 0 0 0 0 0 0 0 0 0 0 0 0 0 0 0 0 0 0 0 0 0 0 0 0 0 0 0 0 0 0 0 0 0 0 0 0 0 0 0 0 0 0 0 0 0 0 0 0 0 0 0 0 0 0 0 0 
0 0 0 0 0 0 0 0 0 0 0 0 0 0 0 0 0 0 0 0 0 0 0 0 0 0 0 0 0 0 0 0 0 0 0 0 0 0 0 0 0 0 0 0 0 0 0 0 0 0 0 0 0 0 0 0 0 0 0 0 0 0 0 0 0 0 0 0 0 0 0 0 0 0 0 0 0 0 0 0 0 0 0 0 0 0 0 0 0 0 0 0 0 0 0 0 0 0 0 0 0 0 0 0 0 0 0 0 0 0 0 0 0 0 0 0 0 0 0 0 0 0 0 0 0 0 0 0 0 0 0 0 0 0 0 0 0 0 0 0 0 0 0 0 0 0 0 0 0 0 
0 0 0 0 0 0 0 0 0 0 0 0 0 0 0 0 0 0 0 0 0 0 0 0 0 0 0 0 0 0 0 0 0 0 0 0 0 0 0 0 0 0 0 0 0 0 0 0 0 0 0 0 0 0 0 0 0 0 0 0 0 0 0 0 0 0 0 0 0 0 0 0 0 0 0 0 0 0 0 0 0 0 0 0 0 0 0 0 0 0 0 0 0 0 0 0 0 0 0 0 0 0 0 0 0 0 0 0 0 0 0 0 0 0 0 0 0 0 0 0 0 0 0 0 0 0 0 0 0 0 0 0 0 0 0 0 0 0 0 0 0 0 0 0 0 0 0 0 0 0 
0 0 0 0 0 0 0 0 0 0 0 0 0 0 0 0 0 0 0 0 0 0 0 0 0 0 0 0 0 0 0 0 0 0 0 0 0 0 0 0 0 0 0 0 0 0 0 0 0 0 0 0 0 0 0 0 0 0 0 0 0 0 0 0 0 0 0 0 0 0 0 0 0 0 0 0 0 0 0 0 0 0 0 0 0 0 0 0 0 0 0 0 0 0 0 0 0 0 0 0 0 0 0 0 0 0 0 0 0 0 0 0 0 0 0 0 0 0 0 0 0 0 0 0 0 0 0 0 0 0 0 0 0 0 0 0 0 0 0 0 0 0 0 0 0 0 0 0 0 0 
0 0 0 0 0 0 0 0 0 0 0 0 0 0 0 0 0 0 0 0 0 0 0 0 0 0 0 0 0 0 0 0 0 0 0 0 0 0 0 0 0 0 0 0 0 0 0 0 0 0 0 0 0 0 0 0 0 0 0 0 0 0 0 0 0 0 0 0 0 0 0 0 0 0 0 0 0 0 0 0 0 0 0 0 0 0 0 0 0 0 0 0 0 0 0 0 0 0 0 0 0 0 0 0 0 0 0 0 0 0 0 0 0 0 0 0 0 0 0 0 0 0 0 0 0 0 0 0 0 0 0 0 0 0 0 0 0 0 0 0 0 0 0 0 0 0 0 0 0 0 
0 0 0 0 0 0 0 0 0 0 0 0 0 0 0 0 0 0 0 0 0 0 0 0 0 0 0 0 0 0 0 0 0 0 0 0 0 0 0 0 0 0 0 0 0 0 0 0 0 0 0 0 0 0 0 0 0 0 0 0 0 0 0 0 0 0 0 0 0 0 0 0 0 0 0 0 0 0 0 0 0 0 0 0 0 0 0 0 0 0 0 0 0 0 0 0 0 0 0 0 0 0 0 0 0 0 0 0 0 0 0 0 0 0 0 0 0 0 0 0 0 0 0 0 0 0 0 0 0 0 0 0 0 0 0 0 0 0 0 0 0 0 0 0 0 0 0 0 0 0 
0 0 0 0 0 0 0 0 0 0 0 0 0 0 0 0 0 0 0 0 0 0 0 0 0 0 0 0 0 0 0 0 0 0 0 0 0 0 0 0 0 0 0 0 0 0 0 0 0 0 0 0 0 0 0 0 0 0 0 0 0 0 0 0 0 0 0 0 0 0 0 0 0 0 0 0 0 0 0 0 0 0 0 0 0 0 0 0 0 0 0 0 0 0 0 0 0 0 0 0 0 0 0 0 0 0 0 0 0 0 0 0 0 0 0 0 0 0 0 0 0 0 0 0 0 0 0 0 0 0 0 0 0 0 0 0 0 0 0 0 0 0 0 0 0 0 0 0 0 0 
0 0 0 0 0 0 0 0 0 0 0 0 0 0 0 0 0 0 0 0 0 0 0 0 0 0 0 0 0 0 0 0 0 0 0 0 0 0 0 0 0 0 0 0 0 0 0 0 0 0 0 0 0 0 0 0 0 0 0 0 0 0 0 0 0 0 0 0 0 0 0 0 0 0 0 0 0 0 0 0 0 0 0 0 0 0 0 0 0 0 0 0 0 0 0 0 0 0 0 0 0 0 0 0 0 0 0 0 0 0 0 0 0 0 0 0 0 0 0 0 0 0 0 0 0 0 0 0 0 0 0 0 0 0 0 0 0 0 0 0 0 0 0 0 0 0 0 0 0 0 
0 0 0 0 0 0 0 0 0 0 0 0 0 0 0 0 0 0 0 0 0 0 0 0 0 0 0 0 0 0 0 0 0 0 0 0 0 0 0 0 0 0 0 0 0 0 0 0 0 0 0 0 0 0 0 0 0 0 0 0 0 0 0 0 0 0 0 0 0 0 0 0 0 0 0 0 0 0 0 0 0 0 0 0 0 0 0 0 0 0 0 0 0 0 0 0 0 0 0 0 0 0 0 0 0 0 0 0 0 0 0 0 0 0 0 0 0 0 0 0 0 0 0 0 0 0 0 0 0 0 0 0 0 0 0 0 0 0 0 0 0 0 0 0 0 0 0 0 0 0 
0 0 0 0 0 0 0 0 0 0 0 0 0 0 0 0 0 0 0 0 0 0 0 0 0 0 0 0 0 0 0 0 0 0 0 0 0 0 0 0 0 0 0 0 0 0 0 0 0 0 0 0 0 0 0 0 0 0 0 0 0 0 0 0 0 0 0 0 0 0 0 0 0 0 0 0 0 0 0 0 0 0 0 0 0 0 0 0 0 0 0 0 0 0 0 0 0 0 0 0 0 0 0 0 0 0 0 0 0 0 0 0 0 0 0 0 0 0 0 0 0 0 0 0 0 0 0 0 0 0 0 0 0 0 0 0 0 0 0 0 0 0 0 0 0 0 0 0 0 0 
0 0 0 0 0 0 0 0 0 0 0 0 0 0 0 0 0 0 0 0 0 0 0 0 0 0 0 0 0 0 0 0 0 0 0 0 0 0 0 0 0 0 0 0 0 0 0 0 0 0 0 0 0 0 0 0 0 0 0 0 0 0 0 0 0 0 0 0 0 0 0 0 0 0 0 0 0 0 0 0 0 0 0 0 0 0 0 0 0 0 0 0 0 0 0 0 0 0 0 0 0 0 0 0 0 0 0 0 0 0 0 0 0 0 0 0 0 0 0 0 0 0 0 0 0 0 0 0 0 0 0 0 0 0 0 0 0 0 0 0 0 0 0 0 0 0 0 0 0 0 
0 0 0 0 0 0 0 0 0 0 0 0 0 0 0 0 0 0 0 0 0 0 0 0 0 0 0 0 0 0 0 0 0 0 0 0 0 0 0 0 0 0 0 0 0 0 0 0 0 0 0 0 0 0 0 0 0 0 0 0 0 0 0 0 0 0 0 0 0 0 0 0 0 0 0 0 0 0 0 0 0 0 0 0 0 0 0 0 0 0 0 0 0 0 0 0 0 0 0 0 0 0 0 0 0 0 0 0 0 0 0 0 0 0 0 0 0 0 0 0 0 0 0 0 0 0 0 0 0 0 0 0 0 0 0 0 0 0 0 0 0 0 0 0 0 0 0 0 0 0 
0 0 0 0 0 0 0 0 0 0 0 0 0 0 0 0 0 0 0 0 0 0 0 0 0 0 0 0 0 0 0 0 0 0 0 0 0 0 0 0 0 0 0 0 0 0 0 0 0 0 0 0 0 0 0 0 0 0 0 0 0 0 0 0 0 0 0 0 0 0 0 0 0 0 0 0 0 0 0 0 0 0 0 0 0 0 0 0 0 0 0 0 0 0 0 0 0 0 0 0 0 0 0 0 0 0 0 0 0 0 0 0 0 0 0 0 0 0 0 0 0 0 0 0 0 0 0 0 0 0 0 0 0 0 0 0 0 0 0 0 0 0 0 0 0 0 0 0 0 0 
0 0 0 0 0 0 0 0 0 0 0 0 0 0 0 0 0 0 0 0 0 0 0 0 0 0 0 0 0 0 0 0 0 0 0 0 0 0 0 0 0 0 0 0 0 0 0 0 0 0 0 0 0 0 0 0 0 0 0 0 0 0 0 0 0 0 0 0 0 0 0 0 0 0 0 0 0 0 0 0 0 0 0 0 0 0 0 0 0 0 0 0 0 0 0 0 0 0 0 0 0 0 0 0 0 0 0 0 0 0 0 0 0 0 0 0 0 0 0 0 0 0 0 0 0 0 0 0 0 0 0 0 0 0 0 0 0 0 0 0 0 0 0 0 0 0 0 0 0 0 
0 0 0 0 0 0 0 0 0 0 0 0 0 0 0 0 0 0 0 0 0 0 0 0 0 0 0 0 0 0 0 0 0 0 0 0 0 0 0 0 0 0 0 0 0 0 0 0 0 0 0 0 0 0 0 0 0 0 0 0 0 0 0 0 0 0 0 0 0 0 0 0 0 0 0 0 0 0 0 0 0 0 0 0 0 0 0 0 0 0 0 0 0 0 0 0 0 0 0 0 0 0 0 0 0 0 0 0 0 0 0 0 0 0 0 0 0 0 0 0 0 0 0 0 0 0 0 0 0 0 0 0 0 0 0 0 0 0 0 0 0 0 0 0 0 0 0 0 0 0 
0 0 0 0 0 0 0 0 0 0 0 0 0 0 0 0 0 0 0 0 0 0 0 0 0 0 0 0 0 0 0 0 0 0 0 0 0 0 0 0 0 0 0 0 0 0 0 0 0 0 0 0 0 0 0 0 0 0 0 0 0 0 0 0 0 0 0 0 0 0 0 0 0 0 0 0 0 0 0 0 0 0 0 0 0 0 0 0 0 0 0 0 0 0 0 0 0 0 0 0 0 0 0 0 0 0 0 0 0 0 0 0 0 0 0 0 0 0 0 0 0 0 0 0 0 0 0 0 0 0 0 0 0 0 0 0 0 0 0 0 0 0 0 0 0 0 0 0 0 0 

Ordenação por dueDates - Solução Inicial:
(34, 6006)
(88, 6011)
(142, 6017)
(116, 6052)
(58, 6057)
(102, 6083)
(19, 6091)
(3, 6108)
(22, 6126)
(61, 6130)
(14, 6131)
(72, 6136)
(27, 6143)
(70, 6146)
(143, 6164)
(109, 6166)
(9, 6194)
(100, 6220)
(147, 6221)
(7, 6227)
(94, 6233)
(141, 6239)
(140, 6253)
(136, 6291)
(110, 6314)
(2, 6316)
(131, 6320)
(106, 6323)
(18, 6358)
(86, 6374)
(41, 6401)
(67, 6409)
(21, 6430)
(98, 6431)
(29, 6452)
(83, 6455)
(138, 6462)
(55, 6479)
(84, 6483)
(36, 6490)
(31, 6492)
(32, 6501)
(82, 6512)
(39, 6520)
(123, 6528)
(117, 6538)
(48, 6545)
(105, 6553)
(15, 6556)
(73, 6573)
(87, 6581)
(17, 6611)
(130, 6615)
(92, 6621)
(75, 6633)
(13, 6635)
(128, 6638)
(71, 6649)
(107, 6655)
(47, 6670)
(124, 6689)
(10, 6704)
(104, 6708)
(144, 6722)
(46, 6746)
(90, 6747)
(11, 6757)
(78, 6765)
(38, 6769)
(45, 6789)
(63, 6799)
(132, 6806)
(126, 6824)
(49, 6829)
(59, 6838)
(66, 6843)
(101, 6844)
(33, 6847)
(119, 6858)
(146, 6876)
(80, 6884)
(6, 6889)
(65, 6899)
(120, 6903)
(23, 6904)
(64, 6917)
(137, 6919)
(4, 6948)
(37, 6951)
(115, 6955)
(54, 6988)
(139, 6996)
(121, 6998)
(96, 7006)
(118, 7009)
(108, 7017)
(148, 7017)
(62, 7028)
(81, 7030)
(5, 7035)
(95, 7040)
(133, 7043)
(93, 7048)
(20, 7086)
(89, 7098)
(125, 7105)
(150, 7125)
(149, 7130)
(30, 7137)
(103, 7137)
(16, 7146)
(56, 7158)
(26, 7166)
(113, 7183)
(60, 7208)
(53, 7209)
(52, 7216)
(57, 7238)
(85, 7252)
(77, 7255)
(8, 7256)
(12, 7256)
(145, 7260)
(43, 7261)
(40, 7287)
(44, 7292)
(35, 7316)
(50, 7379)
(1, 7415)
(122, 7442)
(129, 7442)
(111, 7445)
(79, 7452)
(97, 7471)
(28, 7486)
(114, 7495)
(76, 7497)
(74, 7510)
(51, 7514)
(112, 7534)
(99, 7561)
(134, 7571)
(135, 7587)
(68, 7612)
(91, 7623)
(24, 7625)
(127, 7636)
(42, 7637)
(69, 7680)
(25, 7685)

Calculo do completion time:
47 54 142 239 239 239 239 239 239 239 239 239 239 239 239 239 239 239 239 239 239 239 239 239 239 239 239 239 239 239 
95 178 197 239 239 239 239 239 239 239 239 239 239 239 239 239 239 239 239 239 239 239 239 239 239 239 239 239 239 239 
116 257 270 270 270 270 270 270 270 270 270 270 270 270 270 270 270 270 270 270 270 270 270 270 270 270 270 270 270 270 
214 270 370 370 370 370 370 370 370 370 370 370 370 370 370 370 370 370 370 370 370 370 370 370 370 370 370 370 370 370 
252 281 406 462 462 462 462 462 462 462 462 462 462 462 462 462 462 462 462 462 462 462 462 462 462 462 462 462 462 462 
338 412 499 499 499 499 499 499 499 499 499 499 499 499 499 499 499 499 499 499 499 499 499 499 499 499 499 499 499 499 
411 419 539 596 596 596 596 596 596 596 596 596 596 596 596 596 596 596 596 596 596 596 596 596 596 596 596 596 596 596 
493 543 588 684 684 684 684 684 684 684 684 684 684 684 684 684 684 684 684 684 684 684 684 684 684 684 684 684 684 684 
552 561 628 690 690 690 690 690 690 690 690 690 690 690 690 690 690 690 690 690 690 690 690 690 690 690 690 690 690 690 
631 693 712 783 783 783 783 783 783 783 783 783 783 783 783 783 783 783 783 783 783 783 783 783 783 783 783 783 783 783 
667 747 821 828 828 828 828 828 828 828 828 828 828 828 828 828 828 828 828 828 828 828 828 828 828 828 828 828 828 828 
729 814 906 906 906 906 906 906 906 906 906 906 906 906 906 906 906 906 906 906 906 906 906 906 906 906 906 906 906 906 
733 877 999 1076 1076 1076 1076 1076 1076 1076 1076 1076 1076 1076 1076 1076 1076 1076 1076 1076 1076 1076 1076 1076 1076 1076 1076 1076 1076 1076 
763 968 1014 1127 1127 1127 1127 1127 1127 1127 1127 1127 1127 1127 1127 1127 1127 1127 1127 1127 1127 1127 1127 1127 1127 1127 1127 1127 1127 1127 
769 1031 1071 1127 1127 1127 1127 1127 1127 1127 1127 1127 1127 1127 1127 1127 1127 1127 1127 1127 1127 1127 1127 1127 1127 1127 1127 1127 1127 1127 
789 1064 1133 1133 1133 1133 1133 1133 1133 1133 1133 1133 1133 1133 1133 1133 1133 1133 1133 1133 1133 1133 1133 1133 1133 1133 1133 1133 1133 1133 
828 1091 1136 1199 1199 1199 1199 1199 1199 1199 1199 1199 1199 1199 1199 1199 1199 1199 1199 1199 1199 1199 1199 1199 1199 1199 1199 1199 1199 1199 
897 1125 1204 1204 1204 1204 1204 1204 1204 1204 1204 1204 1204 1204 1204 1204 1204 1204 1204 1204 1204 1204 1204 1204 1204 1204 1204 1204 1204 1204 
937 1161 1266 1266 1266 1266 1266 1266 1266 1266 1266 1266 1266 1266 1266 1266 1266 1266 1266 1266 1266 1266 1266 1266 1266 1266 1266 1266 1266 1266 
1033 1232 1337 1408 1408 1408 1408 1408 1408 1408 1408 1408 1408 1408 1408 1408 1408 1408 1408 1408 1408 1408 1408 1408 1408 1408 1408 1408 1408 1408 
1110 1234 1412 1412 1412 1412 1412 1412 1412 1412 1412 1412 1412 1412 1412 1412 1412 1412 1412 1412 1412 1412 1412 1412 1412 1412 1412 1412 1412 1412 
1123 1279 1476 1476 1476 1476 1476 1476 1476 1476 1476 1476 1476 1476 1476 1476 1476 1476 1476 1476 1476 1476 1476 1476 1476 1476 1476 1476 1476 1476 
1160 1317 1481 1481 1481 1481 1481 1481 1481 1481 1481 1481 1481 1481 1481 1481 1481 1481 1481 1481 1481 1481 1481 1481 1481 1481 1481 1481 1481 1481 
1224 1412 1570 1570 1570 1570 1570 1570 1570 1570 1570 1570 1570 1570 1570 1570 1570 1570 1570 1570 1570 1570 1570 1570 1570 1570 1570 1570 1570 1570 
1316 1486 1638 1638 1638 1638 1638 1638 1638 1638 1638 1638 1638 1638 1638 1638 1638 1638 1638 1638 1638 1638 1638 1638 1638 1638 1638 1638 1638 1638 
1354 1578 1721 1788 1788 1788 1788 1788 1788 1788 1788 1788 1788 1788 1788 1788 1788 1788 1788 1788 1788 1788 1788 1788 1788 1788 1788 1788 1788 1788 
1392 1678 1755 1788 1788 1788 1788 1788 1788 1788 1788 1788 1788 1788 1788 1788 1788 1788 1788 1788 1788 1788 1788 1788 1788 1788 1788 1788 1788 1788 
1403 1708 1759 1788 1788 1788 1788 1788 1788 1788 1788 1788 1788 1788 1788 1788 1788 1788 1788 1788 1788 1788 1788 1788 1788 1788 1788 1788 1788 1788 
1500 1743 1775 1878 1878 1878 1878 1878 1878 1878 1878 1878 1878 1878 1878 1878 1878 1878 1878 1878 1878 1878 1878 1878 1878 1878 1878 1878 1878 1878 
1569 1776 1838 1878 1878 1878 1878 1878 1878 1878 1878 1878 1878 1878 1878 1878 1878 1878 1878 1878 1878 1878 1878 1878 1878 1878 1878 1878 1878 1878 
1663 1825 1919 2012 2012 2012 2012 2012 2012 2012 2012 2012 2012 2012 2012 2012 2012 2012 2012 2012 2012 2012 2012 2012 2012 2012 2012 2012 2012 2012 
1762 1906 1975 2066 2066 2066 2066 2066 2066 2066 2066 2066 2066 2066 2066 2066 2066 2066 2066 2066 2066 2066 2066 2066 2066 2066 2066 2066 2066 2066 
1846 1981 2076 2116 2116 2116 2116 2116 2116 2116 2116 2116 2116 2116 2116 2116 2116 2116 2116 2116 2116 2116 2116 2116 2116 2116 2116 2116 2116 2116 
1860 2018 2164 2164 2164 2164 2164 2164 2164 2164 2164 2164 2164 2164 2164 2164 2164 2164 2164 2164 2164 2164 2164 2164 2164 2164 2164 2164 2164 2164 
1949 2057 2169 2238 2238 2238 2238 2238 2238 2238 2238 2238 2238 2238 2238 2238 2238 2238 2238 2238 2238 2238 2238 2238 2238 2238 2238 2238 2238 2238 
1984 2079 2211 2238 2238 2238 2238 2238 2238 2238 2238 2238 2238 2238 2238 2238 2238 2238 2238 2238 2238 2238 2238 2238 2238 2238 2238 2238 2238 2238 
1989 2112 2244 2244 2244 2244 2244 2244 2244 2244 2244 2244 2244 2244 2244 2244 2244 2244 2244 2244 2244 2244 2244 2244 2244 2244 2244 2244 2244 2244 
2081 2130 2297 2311 2311 2311 2311 2311 2311 2311 2311 2311 2311 2311 2311 2311 2311 2311 2311 2311 2311 2311 2311 2311 2311 2311 2311 2311 2311 2311 
2114 2149 2318 2318 2318 2318 2318 2318 2318 2318 2318 2318 2318 2318 2318 2318 2318 2318 2318 2318 2318 2318 2318 2318 2318 2318 2318 2318 2318 2318 
2139 2170 2393 2490 2490 2490 2490 2490 2490 2490 2490 2490 2490 2490 2490 2490 2490 2490 2490 2490 2490 2490 2490 2490 2490 2490 2490 2490 2490 2490 
2185 2256 2428 2512 2512 2512 2512 2512 2512 2512 2512 2512 2512 2512 2512 2512 2512 2512 2512 2512 2512 2512 2512 2512 2512 2512 2512 2512 2512 2512 
2249 2292 2445 2601 2601 2601 2601 2601 2601 2601 2601 2601 2601 2601 2601 2601 2601 2601 2601 2601 2601 2601 2601 2601 2601 2601 2601 2601 2601 2601 
2264 2353 2460 2601 2601 2601 2601 2601 2601 2601 2601 2601 2601 2601 2601 2601 2601 2601 2601 2601 2601 2601 2601 2601 2601 2601 2601 2601 2601 2601 
2271 2411 2496 2604 2604 2604 2604 2604 2604 2604 2604 2604 2604 2604 2604 2604 2604 2604 2604 2604 2604 2604 2604 2604 2604 2604 2604 2604 2604 2604 
2278 2468 2535 2604 2604 2604 2604 2604 2604 2604 2604 2604 2604 2604 2604 2604 2604 2604 2604 2604 2604 2604 2604 2604 2604 2604 2604 2604 2604 2604 
2343 2564 2636 2636 2636 2636 2636 2636 2636 2636 2636 2636 2636 2636 2636 2636 2636 2636 2636 2636 2636 2636 2636 2636 2636 2636 2636 2636 2636 2636 
2441 2640 2694 2713 2713 2713 2713 2713 2713 2713 2713 2713 2713 2713 2713 2713 2713 2713 2713 2713 2713 2713 2713 2713 2713 2713 2713 2713 2713 2713 
2459 2716 2809 2809 2809 2809 2809 2809 2809 2809 2809 2809 2809 2809 2809 2809 2809 2809 2809 2809 2809 2809 2809 2809 2809 2809 2809 2809 2809 2809 
2540 2811 2840 2847 2847 2847 2847 2847 2847 2847 2847 2847 2847 2847 2847 2847 2847 2847 2847 2847 2847 2847 2847 2847 2847 2847 2847 2847 2847 2847 
2590 2871 2899 2899 2899 2899 2899 2899 2899 2899 2899 2899 2899 2899 2899 2899 2899 2899 2899 2899 2899 2899 2899 2899 2899 2899 2899 2899 2899 2899 
2648 2904 2916 2916 2916 2916 2916 2916 2916 2916 2916 2916 2916 2916 2916 2916 2916 2916 2916 2916 2916 2916 2916 2916 2916 2916 2916 2916 2916 2916 
2658 2909 2925 3022 3022 3022 3022 3022 3022 3022 3022 3022 3022 3022 3022 3022 3022 3022 3022 3022 3022 3022 3022 3022 3022 3022 3022 3022 3022 3022 
2696 2971 3000 3022 3022 3022 3022 3022 3022 3022 3022 3022 3022 3022 3022 3022 3022 3022 3022 3022 3022 3022 3022 3022 3022 3022 3022 3022 3022 3022 
2768 3062 3074 3074 3074 3074 3074 3074 3074 3074 3074 3074 3074 3074 3074 3074 3074 3074 3074 3074 3074 3074 3074 3074 3074 3074 3074 3074 3074 3074 
2860 3150 3222 3222 3222 3222 3222 3222 3222 3222 3222 3222 3222 3222 3222 3222 3222 3222 3222 3222 3222 3222 3222 3222 3222 3222 3222 3222 3222 3222 
2875 3163 3320 3376 3376 3376 3376 3376 3376 3376 3376 3376 3376 3376 3376 3376 3376 3376 3376 3376 3376 3376 3376 3376 3376 3376 3376 3376 3376 3376 
2887 3239 3416 3416 3416 3416 3416 3416 3416 3416 3416 3416 3416 3416 3416 3416 3416 3416 3416 3416 3416 3416 3416 3416 3416 3416 3416 3416 3416 3416 
2942 3256 3489 3502 3502 3502 3502 3502 3502 3502 3502 3502 3502 3502 3502 3502 3502 3502 3502 3502 3502 3502 3502 3502 3502 3502 3502 3502 3502 3502 
3003 3280 3580 3580 3580 3580 3580 3580 3580 3580 3580 3580 3580 3580 3580 3580 3580 3580 3580 3580 3580 3580 3580 3580 3580 3580 3580 3580 3580 3580 
3036 3342 3665 3687 3687 3687 3687 3687 3687 3687 3687 3687 3687 3687 3687 3687 3687 3687 3687 3687 3687 3687 3687 3687 3687 3687 3687 3687 3687 3687 
3108 3352 3742 3742 3742 3742 3742 3742 3742 3742 3742 3742 3742 3742 3742 3742 3742 3742 3742 3742 3742 3742 3742 3742 3742 3742 3742 3742 3742 3742 
3153 3377 3830 3883 3883 3883 3883 3883 3883 3883 3883 3883 3883 3883 3883 3883 3883 3883 3883 3883 3883 3883 3883 3883 3883 3883 3883 3883 3883 3883 
3219 3430 3850 3883 3883 3883 3883 3883 3883 3883 3883 3883 3883 3883 3883 3883 3883 3883 3883 3883 3883 3883 3883 3883 3883 3883 3883 3883 3883 3883 
3297 3470 3901 3901 3901 3901 3901 3901 3901 3901 3901 3901 3901 3901 3901 3901 3901 3901 3901 3901 3901 3901 3901 3901 3901 3901 3901 3901 3901 3901 
3369 3495 3994 4025 4025 4025 4025 4025 4025 4025 4025 4025 4025 4025 4025 4025 4025 4025 4025 4025 4025 4025 4025 4025 4025 4025 4025 4025 4025 4025 
3417 3500 4019 4025 4025 4025 4025 4025 4025 4025 4025 4025 4025 4025 4025 4025 4025 4025 4025 4025 4025 4025 4025 4025 4025 4025 4025 4025 4025 4025 
3420 3579 4037 4118 4118 4118 4118 4118 4118 4118 4118 4118 4118 4118 4118 4118 4118 4118 4118 4118 4118 4118 4118 4118 4118 4118 4118 4118 4118 4118 
3423 3605 4077 4118 4118 4118 4118 4118 4118 4118 4118 4118 4118 4118 4118 4118 4118 4118 4118 4118 4118 4118 4118 4118 4118 4118 4118 4118 4118 4118 
3475 3617 4081 4157 4157 4157 4157 4157 4157 4157 4157 4157 4157 4157 4157 4157 4157 4157 4157 4157 4157 4157 4157 4157 4157 4157 4157 4157 4157 4157 
3543 3709 4148 4170 4170 4170 4170 4170 4170 4170 4170 4170 4170 4170 4170 4170 4170 4170 4170 4170 4170 4170 4170 4170 4170 4170 4170 4170 4170 4170 
3570 3752 4162 4192 4192 4192 4192 4192 4192 4192 4192 4192 4192 4192 4192 4192 4192 4192 4192 4192 4192 4192 4192 4192 4192 4192 4192 4192 4192 4192 
3669 3818 4256 4256 4256 4256 4256 4256 4256 4256 4256 4256 4256 4256 4256 4256 4256 4256 4256 4256 4256 4256 4256 4256 4256 4256 4256 4256 4256 4256 
3765 3875 4295 4295 4295 4295 4295 4295 4295 4295 4295 4295 4295 4295 4295 4295 4295 4295 4295 4295 4295 4295 4295 4295 4295 4295 4295 4295 4295 4295 
3832 3947 4376 4438 4438 4438 4438 4438 4438 4438 4438 4438 4438 4438 4438 4438 4438 4438 4438 4438 4438 4438 4438 4438 4438 4438 4438 4438 4438 4438 
3850 4042 4443 4524 4524 4524 4524 4524 4524 4524 4524 4524 4524 4524 4524 4524 4524 4524 4524 4524 4524 4524 4524 4524 4524 4524 4524 4524 4524 4524 
3883 4045 4528 4618 4618 4618 4618 4618 4618 4618 4618 4618 4618 4618 4618 4618 4618 4618 4618 4618 4618 4618 4618 4618 4618 4618 4618 4618 4618 4618 
3905 4046 4625 4625 4625 4625 4625 4625 4625 4625 4625 4625 4625 4625 4625 4625 4625 4625 4625 4625 4625 4625 4625 4625 4625 4625 4625 4625 4625 4625 
3929 4075 4683 4739 4739 4739 4739 4739 4739 4739 4739 4739 4739 4739 4739 4739 4739 4739 4739 4739 4739 4739 4739 4739 4739 4739 4739 4739 4739 4739 
3965 4084 4779 4779 4779 4779 4779 4779 4779 4779 4779 4779 4779 4779 4779 4779 4779 4779 4779 4779 4779 4779 4779 4779 4779 4779 4779 4779 4779 4779 
4009 4120 4820 4820 4820 4820 4820 4820 4820 4820 4820 4820 4820 4820 4820 4820 4820 4820 4820 4820 4820 4820 4820 4820 4820 4820 4820 4820 4820 4820 
4044 4201 4889 4889 4889 4889 4889 4889 4889 4889 4889 4889 4889 4889 4889 4889 4889 4889 4889 4889 4889 4889 4889 4889 4889 4889 4889 4889 4889 4889 
4105 4299 4914 4975 4975 4975 4975 4975 4975 4975 4975 4975 4975 4975 4975 4975 4975 4975 4975 4975 4975 4975 4975 4975 4975 4975 4975 4975 4975 4975 
4112 4371 5012 5054 5054 5054 5054 5054 5054 5054 5054 5054 5054 5054 5054 5054 5054 5054 5054 5054 5054 5054 5054 5054 5054 5054 5054 5054 5054 5054 
4114 4377 5033 5054 5054 5054 5054 5054 5054 5054 5054 5054 5054 5054 5054 5054 5054 5054 5054 5054 5054 5054 5054 5054 5054 5054 5054 5054 5054 5054 
4120 4402 5059 5152 5152 5152 5152 5152 5152 5152 5152 5152 5152 5152 5152 5152 5152 5152 5152 5152 5152 5152 5152 5152 5152 5152 5152 5152 5152 5152 
4157 4415 5145 5171 5171 5171 5171 5171 5171 5171 5171 5171 5171 5171 5171 5171 5171 5171 5171 5171 5171 5171 5171 5171 5171 5171 5171 5171 5171 5171 
4204 4502 5192 5192 5192 5192 5192 5192 5192 5192 5192 5192 5192 5192 5192 5192 5192 5192 5192 5192 5192 5192 5192 5192 5192 5192 5192 5192 5192 5192 
4261 4596 5235 5257 5257 5257 5257 5257 5257 5257 5257 5257 5257 5257 5257 5257 5257 5257 5257 5257 5257 5257 5257 5257 5257 5257 5257 5257 5257 5257 
4323 4614 5282 5364 5364 5364 5364 5364 5364 5364 5364 5364 5364 5364 5364 5364 5364 5364 5364 5364 5364 5364 5364 5364 5364 5364 5364 5364 5364 5364 
4383 4710 5382 5382 5382 5382 5382 5382 5382 5382 5382 5382 5382 5382 5382 5382 5382 5382 5382 5382 5382 5382 5382 5382 5382 5382 5382 5382 5382 5382 
4445 4792 5400 5447 5447 5447 5447 5447 5447 5447 5447 5447 5447 5447 5447 5447 5447 5447 5447 5447 5447 5447 5447 5447 5447 5447 5447 5447 5447 5447 
4506 4835 5461 5461 5461 5461 5461 5461 5461 5461 5461 5461 5461 5461 5461 5461 5461 5461 5461 5461 5461 5461 5461 5461 5461 5461 5461 5461 5461 5461 
4523 4908 5528 5528 5528 5528 5528 5528 5528 5528 5528 5528 5528 5528 5528 5528 5528 5528 5528 5528 5528 5528 5528 5528 5528 5528 5528 5528 5528 5528 
4579 4970 5552 5552 5552 5552 5552 5552 5552 5552 5552 5552 5552 5552 5552 5552 5552 5552 5552 5552 5552 5552 5552 5552 5552 5552 5552 5552 5552 5552 
4663 4987 5553 5553 5553 5553 5553 5553 5553 5553 5553 5553 5553 5553 5553 5553 5553 5553 5553 5553 5553 5553 5553 5553 5553 5553 5553 5553 5553 5553 
4708 5082 5652 5652 5652 5652 5652 5652 5652 5652 5652 5652 5652 5652 5652 5652 5652 5652 5652 5652 5652 5652 5652 5652 5652 5652 5652 5652 5652 5652 
4791 5146 5708 5708 5708 5708 5708 5708 5708 5708 5708 5708 5708 5708 5708 5708 5708 5708 5708 5708 5708 5708 5708 5708 5708 5708 5708 5708 5708 5708 
4824 5171 5808 5888 5888 5888 5888 5888 5888 5888 5888 5888 5888 5888 5888 5888 5888 5888 5888 5888 5888 5888 5888 5888 5888 5888 5888 5888 5888 5888 
4875 5210 5903 5903 5903 5903 5903 5903 5903 5903 5903 5903 5903 5903 5903 5903 5903 5903 5903 5903 5903 5903 5903 5903 5903 5903 5903 5903 5903 5903 
4935 5289 5937 5962 5962 5962 5962 5962 5962 5962 5962 5962 5962 5962 5962 5962 5962 5962 5962 5962 5962 5962 5962 5962 5962 5962 5962 5962 5962 5962 
4981 5306 5975 5975 5975 5975 5975 5975 5975 5975 5975 5975 5975 5975 5975 5975 5975 5975 5975 5975 5975 5975 5975 5975 5975 5975 5975 5975 5975 5975 
5017 5385 5985 5985 5985 5985 5985 5985 5985 5985 5985 5985 5985 5985 5985 5985 5985 5985 5985 5985 5985 5985 5985 5985 5985 5985 5985 5985 5985 5985 
5085 5437 6043 6043 6043 6043 6043 6043 6043 6043 6043 6043 6043 6043 6043 6043 6043 6043 6043 6043 6043 6043 6043 6043 6043 6043 6043 6043 6043 6043 
5100 5456 6109 6172 6172 6172 6172 6172 6172 6172 6172 6172 6172 6172 6172 6172 6172 6172 6172 6172 6172 6172 6172 6172 6172 6172 6172 6172 6172 6172 
5115 5541 6138 6172 6172 6172 6172 6172 6172 6172 6172 6172 6172 6172 6172 6172 6172 6172 6172 6172 6172 6172 6172 6172 6172 6172 6172 6172 6172 6172 
5187 5638 6181 6181 6181 6181 6181 6181 6181 6181 6181 6181 6181 6181 6181 6181 6181 6181 6181 6181 6181 6181 6181 6181 6181 6181 6181 6181 6181 6181 
5190 5669 6253 6253 6253 6253 6253 6253 6253 6253 6253 6253 6253 6253 6253 6253 6253 6253 6253 6253 6253 6253 6253 6253 6253 6253 6253 6253 6253 6253 
5250 5749 6303 6303 6303 6303 6303 6303 6303 6303 6303 6303 6303 6303 6303 6303 6303 6303 6303 6303 6303 6303 6303 6303 6303 6303 6303 6303 6303 6303 
5295 5842 6367 6368 6368 6368 6368 6368 6368 6368 6368 6368 6368 6368 6368 6368 6368 6368 6368 6368 6368 6368 6368 6368 6368 6368 6368 6368 6368 6368 
5379 5873 6417 6417 6417 6417 6417 6417 6417 6417 6417 6417 6417 6417 6417 6417 6417 6417 6417 6417 6417 6417 6417 6417 6417 6417 6417 6417 6417 6417 
5389 5879 6429 6482 6482 6482 6482 6482 6482 6482 6482 6482 6482 6482 6482 6482 6482 6482 6482 6482 6482 6482 6482 6482 6482 6482 6482 6482 6482 6482 
5403 5929 6439 6496 6496 6496 6496 6496 6496 6496 6496 6496 6496 6496 6496 6496 6496 6496 6496 6496 6496 6496 6496 6496 6496 6496 6496 6496 6496 6496 
5471 6026 6523 6559 6559 6559 6559 6559 6559 6559 6559 6559 6559 6559 6559 6559 6559 6559 6559 6559 6559 6559 6559 6559 6559 6559 6559 6559 6559 6559 
5472 6120 6579 6579 6579 6579 6579 6579 6579 6579 6579 6579 6579 6579 6579 6579 6579 6579 6579 6579 6579 6579 6579 6579 6579 6579 6579 6579 6579 6579 
5500 6183 6602 6664 6664 6664 6664 6664 6664 6664 6664 6664 6664 6664 6664 6664 6664 6664 6664 6664 6664 6664 6664 6664 6664 6664 6664 6664 6664 6664 
5552 6247 6647 6687 6687 6687 6687 6687 6687 6687 6687 6687 6687 6687 6687 6687 6687 6687 6687 6687 6687 6687 6687 6687 6687 6687 6687 6687 6687 6687 
5614 6331 6670 6694 6694 6694 6694 6694 6694 6694 6694 6694 6694 6694 6694 6694 6694 6694 6694 6694 6694 6694 6694 6694 6694 6694 6694 6694 6694 6694 
5644 6416 6720 6791 6791 6791 6791 6791 6791 6791 6791 6791 6791 6791 6791 6791 6791 6791 6791 6791 6791 6791 6791 6791 6791 6791 6791 6791 6791 6791 
5711 6441 6812 6812 6812 6812 6812 6812 6812 6812 6812 6812 6812 6812 6812 6812 6812 6812 6812 6812 6812 6812 6812 6812 6812 6812 6812 6812 6812 6812 
5725 6536 6907 6907 6907 6907 6907 6907 6907 6907 6907 6907 6907 6907 6907 6907 6907 6907 6907 6907 6907 6907 6907 6907 6907 6907 6907 6907 6907 6907 
5781 6545 6939 6965 6965 6965 6965 6965 6965 6965 6965 6965 6965 6965 6965 6965 6965 6965 6965 6965 6965 6965 6965 6965 6965 6965 6965 6965 6965 6965 
5859 6638 6964 6993 6993 6993 6993 6993 6993 6993 6993 6993 6993 6993 6993 6993 6993 6993 6993 6993 6993 6993 6993 6993 6993 6993 6993 6993 6993 6993 
5896 6708 7012 7012 7012 7012 7012 7012 7012 7012 7012 7012 7012 7012 7012 7012 7012 7012 7012 7012 7012 7012 7012 7012 7012 7012 7012 7012 7012 7012 
5904 6799 7092 7162 7162 7162 7162 7162 7162 7162 7162 7162 7162 7162 7162 7162 7162 7162 7162 7162 7162 7162 7162 7162 7162 7162 7162 7162 7162 7162 
5960 6880 7100 7182 7182 7182 7182 7182 7182 7182 7182 7182 7182 7182 7182 7182 7182 7182 7182 7182 7182 7182 7182 7182 7182 7182 7182 7182 7182 7182 
6044 6924 7149 7248 7248 7248 7248 7248 7248 7248 7248 7248 7248 7248 7248 7248 7248 7248 7248 7248 7248 7248 7248 7248 7248 7248 7248 7248 7248 7248 
6067 6957 7157 7328 7328 7328 7328 7328 7328 7328 7328 7328 7328 7328 7328 7328 7328 7328 7328 7328 7328 7328 7328 7328 7328 7328 7328 7328 7328 7328 
6157 6975 7215 7385 7385 7385 7385 7385 7385 7385 7385 7385 7385 7385 7385 7385 7385 7385 7385 7385 7385 7385 7385 7385 7385 7385 7385 7385 7385 7385 
6215 6978 7225 7435 7435 7435 7435 7435 7435 7435 7435 7435 7435 7435 7435 7435 7435 7435 7435 7435 7435 7435 7435 7435 7435 7435 7435 7435 7435 7435 
6243 6984 7245 7435 7435 7435 7435 7435 7435 7435 7435 7435 7435 7435 7435 7435 7435 7435 7435 7435 7435 7435 7435 7435 7435 7435 7435 7435 7435 7435 
6256 7013 7284 7435 7435 7435 7435 7435 7435 7435 7435 7435 7435 7435 7435 7435 7435 7435 7435 7435 7435 7435 7435 7435 7435 7435 7435 7435 7435 7435 
6305 7067 7363 7435 7435 7435 7435 7435 7435 7435 7435 7435 7435 7435 7435 7435 7435 7435 7435 7435 7435 7435 7435 7435 7435 7435 7435 7435 7435 7435 
6314 7161 7431 7435 7435 7435 7435 7435 7435 7435 7435 7435 7435 7435 7435 7435 7435 7435 7435 7435 7435 7435 7435 7435 7435 7435 7435 7435 7435 7435 
6344 7226 7486 7486 7486 7486 7486 7486 7486 7486 7486 7486 7486 7486 7486 7486 7486 7486 7486 7486 7486 7486 7486 7486 7486 7486 7486 7486 7486 7486 
6349 7236 7571 7605 7605 7605 7605 7605 7605 7605 7605 7605 7605 7605 7605 7605 7605 7605 7605 7605 7605 7605 7605 7605 7605 7605 7605 7605 7605 7605 
6409 7300 7595 7605 7605 7605 7605 7605 7605 7605 7605 7605 7605 7605 7605 7605 7605 7605 7605 7605 7605 7605 7605 7605 7605 7605 7605 7605 7605 7605 
6431 7305 7670 7670 7670 7670 7670 7670 7670 7670 7670 7670 7670 7670 7670 7670 7670 7670 7670 7670 7670 7670 7670 7670 7670 7670 7670 7670 7670 7670 
6528 7389 7720 7720 7720 7720 7720 7720 7720 7720 7720 7720 7720 7720 7720 7720 7720 7720 7720 7720 7720 7720 7720 7720 7720 7720 7720 7720 7720 7720 
6608 7482 7816 7879 7879 7879 7879 7879 7879 7879 7879 7879 7879 7879 7879 7879 7879 7879 7879 7879 7879 7879 7879 7879 7879 7879 7879 7879 7879 7879 
6681 7523 7837 7879 7879 7879 7879 7879 7879 7879 7879 7879 7879 7879 7879 7879 7879 7879 7879 7879 7879 7879 7879 7879 7879 7879 7879 7879 7879 7879 
6733 7583 7845 7879 7879 7879 7879 7879 7879 7879 7879 7879 7879 7879 7879 7879 7879 7879 7879 7879 7879 7879 7879 7879 7879 7879 7879 7879 7879 7879 
6832 7607 7920 7920 7920 7920 7920 7920 7920 7920 7920 7920 7920 7920 7920 7920 7920 7920 7920 7920 7920 7920 7920 7920 7920 7920 7920 7920 7920 7920 
6846 7705 8020 8020 8020 8020 8020 8020 8020 8020 8020 8020 8020 8020 8020 8020 8020 8020 8020 8020 8020 8020 8020 8020 8020 8020 8020 8020 8020 8020 
6855 7783 8066 8148 8148 8148 8148 8148 8148 8148 8148 8148 8148 8148 8148 8148 8148 8148 8148 8148 8148 8148 8148 8148 8148 8148 8148 8148 8148 8148 
6909 7785 8160 8160 8160 8160 8160 8160 8160 8160 8160 8160 8160 8160 8160 8160 8160 8160 8160 8160 8160 8160 8160 8160 8160 8160 8160 8160 8160 8160 
6915 7809 8229 8299 8299 8299 8299 8299 8299 8299 8299 8299 8299 8299 8299 8299 8299 8299 8299 8299 8299 8299 8299 8299 8299 8299 8299 8299 8299 8299 
7014 7832 8275 8299 8299 8299 8299 8299 8299 8299 8299 8299 8299 8299 8299 8299 8299 8299 8299 8299 8299 8299 8299 8299 8299 8299 8299 8299 8299 8299 
7023 7923 8340 8383 8383 8383 8383 8383 8383 8383 8383 8383 8383 8383 8383 8383 8383 8383 8383 8383 8383 8383 8383 8383 8383 8383 8383 8383 8383 8383 
7122 7943 8382 8413 8413 8413 8413 8413 8413 8413 8413 8413 8413 8413 8413 8413 8413 8413 8413 8413 8413 8413 8413 8413 8413 8413 8413 8413 8413 8413 
7217 8024 8383 8424 8424 8424 8424 8424 8424 8424 8424 8424 8424 8424 8424 8424 8424 8424 8424 8424 8424 8424 8424 8424 8424 8424 8424 8424 8424 8424 
Sequência de Tarefas - Solução Final
34 88 142 116 58 102 19 3 22 61 14 72 27 70 143 109 9 100 147 7 94 141 140 136 110 2 131 106 18 86 41 67 21 98 29 83 138 55 84 36 31 32 82 39 123 117 48 105 15 73 87 17 130 92 75 13 128 71 107 47 124 10 104 144 46 90 11 78 38 45 63 132 126 49 59 66 101 33 119 146 80 6 65 120 23 64 137 4 37 115 54 139 121 96 118 108 148 62 81 5 95 133 93 20 89 125 150 149 30 103 16 56 26 113 60 53 52 57 85 77 8 12 145 43 40 44 35 50 1 122 129 111 79 97 28 114 76 74 51 112 99 134 135 68 91 24 127 42 69 25 

Squencia que diminui o atraso Maximo:
Novo Atraso = 541
27 113 64 65 92 103 50 56 99 138 49 136 42 83 150 55 124 137 2 44 57 84 5 41 74 19 130 73 141 79 128 3 76 46 81 139 29 15 90 69 10 95 125 11 70 34 16 117 17 45 33 54 120 119 24 28 22 12 87 43 122 107 96 51 14 36 127 37 26 131 144 62 23 121 9 31 72 112 146 149 71 67 93 102 142 20 86 60 13 114 40 30 32 94 100 105 123 88 59 133 132 47 115 21 89 52 8 78 135 77 111 66 7 145 134 39 147 53 126 38 25 48 18 4 61 91 63 1 97 108 104 6 35 80 101 109 58 143 140 116 110 118 85 148 82 106 75 68 98 129 
Atraso Máximo: 541
Tempo: 0.03801 segundos
